c FILE: random-n100-d60-e-n100-d60-1.col

p edge 100 2970
e 1 5
e 1 7
e 1 9
e 1 11
e 1 12
e 1 13
e 1 14
e 1 15
e 1 16
e 1 19
e 1 21
e 1 22
e 1 23
e 1 24
e 1 27
e 1 28
e 1 30
e 1 32
e 1 34
e 1 35
e 1 36
e 1 38
e 1 39
e 1 40
e 1 43
e 1 46
e 1 47
e 1 49
e 1 50
e 1 54
e 1 57
e 1 60
e 1 61
e 1 63
e 1 65
e 1 66
e 1 67
e 1 70
e 1 71
e 1 72
e 1 75
e 1 76
e 1 77
e 1 78
e 1 82
e 1 83
e 1 84
e 1 86
e 1 87
e 1 88
e 1 89
e 1 90
e 1 93
e 1 94
e 1 95
e 1 97
e 1 98
e 1 99
e 2 3
e 2 4
e 2 5
e 2 9
e 2 11
e 2 13
e 2 14
e 2 15
e 2 16
e 2 17
e 2 18
e 2 19
e 2 20
e 2 21
e 2 22
e 2 23
e 2 24
e 2 25
e 2 27
e 2 28
e 2 31
e 2 32
e 2 37
e 2 38
e 2 41
e 2 45
e 2 46
e 2 49
e 2 50
e 2 59
e 2 60
e 2 61
e 2 62
e 2 63
e 2 64
e 2 66
e 2 67
e 2 68
e 2 69
e 2 70
e 2 72
e 2 73
e 2 74
e 2 75
e 2 76
e 2 78
e 2 80
e 2 82
e 2 83
e 2 84
e 2 86
e 2 88
e 2 89
e 2 94
e 2 95
e 2 96
e 2 97
e 2 98
e 2 99
e 2 100
e 3 4
e 3 6
e 3 8
e 3 10
e 3 11
e 3 13
e 3 14
e 3 16
e 3 18
e 3 19
e 3 20
e 3 23
e 3 25
e 3 26
e 3 28
e 3 29
e 3 30
e 3 34
e 3 37
e 3 40
e 3 41
e 3 42
e 3 43
e 3 44
e 3 45
e 3 46
e 3 47
e 3 48
e 3 49
e 3 50
e 3 51
e 3 52
e 3 55
e 3 56
e 3 58
e 3 59
e 3 60
e 3 61
e 3 63
e 3 64
e 3 65
e 3 66
e 3 68
e 3 69
e 3 70
e 3 71
e 3 72
e 3 73
e 3 74
e 3 75
e 3 80
e 3 81
e 3 82
e 3 83
e 3 84
e 3 86
e 3 87
e 3 88
e 3 91
e 3 92
e 3 93
e 3 94
e 3 95
e 3 96
e 3 97
e 3 98
e 3 99
e 3 100
e 4 5
e 4 6
e 4 7
e 4 8
e 4 10
e 4 13
e 4 14
e 4 15
e 4 17
e 4 18
e 4 19
e 4 21
e 4 24
e 4 29
e 4 30
e 4 31
e 4 32
e 4 38
e 4 40
e 4 41
e 4 43
e 4 46
e 4 47
e 4 48
e 4 50
e 4 52
e 4 53
e 4 54
e 4 55
e 4 57
e 4 58
e 4 59
e 4 60
e 4 61
e 4 63
e 4 64
e 4 68
e 4 69
e 4 70
e 4 71
e 4 73
e 4 74
e 4 76
e 4 77
e 4 78
e 4 80
e 4 81
e 4 82
e 4 84
e 4 86
e 4 88
e 4 89
e 4 90
e 4 92
e 4 93
e 4 94
e 4 98
e 4 99
e 5 9
e 5 10
e 5 11
e 5 15
e 5 16
e 5 17
e 5 18
e 5 19
e 5 21
e 5 24
e 5 25
e 5 27
e 5 28
e 5 30
e 5 31
e 5 32
e 5 35
e 5 36
e 5 37
e 5 38
e 5 39
e 5 41
e 5 42
e 5 43
e 5 44
e 5 45
e 5 46
e 5 47
e 5 48
e 5 51
e 5 54
e 5 56
e 5 57
e 5 58
e 5 59
e 5 60
e 5 61
e 5 62
e 5 63
e 5 64
e 5 65
e 5 66
e 5 67
e 5 68
e 5 71
e 5 73
e 5 74
e 5 76
e 5 78
e 5 79
e 5 81
e 5 84
e 5 85
e 5 89
e 5 90
e 5 93
e 5 95
e 5 97
e 5 100
e 6 7
e 6 8
e 6 9
e 6 10
e 6 13
e 6 14
e 6 15
e 6 22
e 6 23
e 6 25
e 6 26
e 6 27
e 6 29
e 6 30
e 6 31
e 6 34
e 6 35
e 6 37
e 6 39
e 6 42
e 6 43
e 6 44
e 6 47
e 6 49
e 6 52
e 6 54
e 6 55
e 6 58
e 6 59
e 6 60
e 6 65
e 6 67
e 6 68
e 6 70
e 6 71
e 6 72
e 6 74
e 6 76
e 6 78
e 6 79
e 6 80
e 6 81
e 6 82
e 6 83
e 6 84
e 6 86
e 6 89
e 6 90
e 6 92
e 6 93
e 6 94
e 6 95
e 6 96
e 6 98
e 6 100
e 7 8
e 7 13
e 7 14
e 7 15
e 7 16
e 7 20
e 7 21
e 7 22
e 7 25
e 7 27
e 7 28
e 7 29
e 7 30
e 7 31
e 7 35
e 7 38
e 7 39
e 7 40
e 7 42
e 7 43
e 7 45
e 7 47
e 7 48
e 7 49
e 7 50
e 7 52
e 7 53
e 7 54
e 7 55
e 7 56
e 7 59
e 7 61
e 7 63
e 7 65
e 7 66
e 7 67
e 7 69
e 7 70
e 7 71
e 7 72
e 7 74
e 7 76
e 7 77
e 7 80
e 7 81
e 7 83
e 7 85
e 7 86
e 7 87
e 7 88
e 7 90
e 7 94
e 7 95
e 7 99
e 8 9
e 8 10
e 8 11
e 8 14
e 8 15
e 8 16
e 8 17
e 8 19
e 8 23
e 8 24
e 8 25
e 8 26
e 8 27
e 8 29
e 8 30
e 8 31
e 8 33
e 8 35
e 8 37
e 8 39
e 8 41
e 8 42
e 8 44
e 8 49
e 8 55
e 8 57
e 8 59
e 8 60
e 8 61
e 8 62
e 8 63
e 8 64
e 8 65
e 8 66
e 8 67
e 8 69
e 8 70
e 8 71
e 8 72
e 8 77
e 8 78
e 8 79
e 8 81
e 8 82
e 8 83
e 8 87
e 8 90
e 8 91
e 8 92
e 8 95
e 8 96
e 8 97
e 8 98
e 8 99
e 8 100
e 9 10
e 9 11
e 9 12
e 9 15
e 9 16
e 9 19
e 9 20
e 9 21
e 9 22
e 9 25
e 9 27
e 9 28
e 9 29
e 9 30
e 9 31
e 9 33
e 9 34
e 9 36
e 9 40
e 9 41
e 9 44
e 9 45
e 9 48
e 9 51
e 9 57
e 9 58
e 9 61
e 9 65
e 9 66
e 9 68
e 9 69
e 9 70
e 9 73
e 9 75
e 9 77
e 9 78
e 9 80
e 9 81
e 9 83
e 9 84
e 9 85
e 9 86
e 9 87
e 9 89
e 9 91
e 9 92
e 9 93
e 9 96
e 9 97
e 9 98
e 9 100
e 10 11
e 10 12
e 10 14
e 10 15
e 10 16
e 10 18
e 10 20
e 10 21
e 10 27
e 10 28
e 10 29
e 10 33
e 10 37
e 10 39
e 10 41
e 10 42
e 10 43
e 10 49
e 10 50
e 10 51
e 10 52
e 10 54
e 10 56
e 10 57
e 10 58
e 10 61
e 10 62
e 10 63
e 10 65
e 10 67
e 10 69
e 10 72
e 10 73
e 10 74
e 10 78
e 10 83
e 10 85
e 10 86
e 10 87
e 10 88
e 10 89
e 10 90
e 10 91
e 10 95
e 10 96
e 10 97
e 10 98
e 10 99
e 10 100
e 11 12
e 11 16
e 11 19
e 11 22
e 11 24
e 11 26
e 11 27
e 11 29
e 11 30
e 11 32
e 11 34
e 11 35
e 11 36
e 11 38
e 11 39
e 11 41
e 11 42
e 11 43
e 11 44
e 11 46
e 11 48
e 11 49
e 11 50
e 11 51
e 11 53
e 11 54
e 11 55
e 11 56
e 11 57
e 11 59
e 11 60
e 11 61
e 11 63
e 11 64
e 11 66
e 11 68
e 11 69
e 11 70
e 11 71
e 11 72
e 11 73
e 11 74
e 11 76
e 11 78
e 11 88
e 11 89
e 11 91
e 11 92
e 11 93
e 11 95
e 11 96
e 11 98
e 11 99
e 11 100
e 12 16
e 12 18
e 12 19
e 12 22
e 12 26
e 12 27
e 12 28
e 12 29
e 12 30
e 12 31
e 12 33
e 12 34
e 12 36
e 12 37
e 12 38
e 12 40
e 12 41
e 12 42
e 12 43
e 12 45
e 12 46
e 12 47
e 12 48
e 12 50
e 12 51
e 12 52
e 12 57
e 12 58
e 12 59
e 12 60
e 12 61
e 12 62
e 12 64
e 12 66
e 12 67
e 12 70
e 12 74
e 12 76
e 12 77
e 12 78
e 12 79
e 12 80
e 12 81
e 12 82
e 12 83
e 12 84
e 12 85
e 12 86
e 12 87
e 12 89
e 12 90
e 12 92
e 12 93
e 12 96
e 12 97
e 12 99
e 13 14
e 13 15
e 13 18
e 13 19
e 13 21
e 13 23
e 13 26
e 13 27
e 13 28
e 13 29
e 13 31
e 13 33
e 13 36
e 13 38
e 13 40
e 13 41
e 13 44
e 13 46
e 13 48
e 13 49
e 13 50
e 13 51
e 13 52
e 13 55
e 13 56
e 13 57
e 13 58
e 13 61
e 13 64
e 13 66
e 13 67
e 13 68
e 13 69
e 13 71
e 13 72
e 13 74
e 13 79
e 13 83
e 13 87
e 13 88
e 13 89
e 13 91
e 13 92
e 13 96
e 13 98
e 13 99
e 13 100
e 14 15
e 14 16
e 14 17
e 14 18
e 14 20
e 14 24
e 14 25
e 14 26
e 14 27
e 14 30
e 14 31
e 14 32
e 14 33
e 14 34
e 14 35
e 14 36
e 14 37
e 14 38
e 14 40
e 14 42
e 14 43
e 14 44
e 14 45
e 14 46
e 14 48
e 14 49
e 14 51
e 14 53
e 14 58
e 14 59
e 14 61
e 14 62
e 14 64
e 14 66
e 14 69
e 14 70
e 14 71
e 14 72
e 14 73
e 14 75
e 14 76
e 14 77
e 14 78
e 14 80
e 14 81
e 14 84
e 14 86
e 14 87
e 14 88
e 14 91
e 14 93
e 14 94
e 14 95
e 14 97
e 14 100
e 15 16
e 15 17
e 15 18
e 15 19
e 15 23
e 15 24
e 15 27
e 15 28
e 15 30
e 15 34
e 15 36
e 15 39
e 15 41
e 15 42
e 15 45
e 15 46
e 15 47
e 15 50
e 15 51
e 15 52
e 15 53
e 15 55
e 15 58
e 15 59
e 15 60
e 15 61
e 15 63
e 15 65
e 15 67
e 15 68
e 15 72
e 15 73
e 15 74
e 15 75
e 15 76
e 15 78
e 15 80
e 15 82
e 15 83
e 15 84
e 15 87
e 15 88
e 15 89
e 15 92
e 15 93
e 15 94
e 15 96
e 15 97
e 15 98
e 15 99
e 16 17
e 16 19
e 16 20
e 16 23
e 16 26
e 16 27
e 16 28
e 16 30
e 16 31
e 16 33
e 16 35
e 16 38
e 16 39
e 16 41
e 16 43
e 16 45
e 16 48
e 16 49
e 16 51
e 16 52
e 16 54
e 16 55
e 16 57
e 16 58
e 16 59
e 16 61
e 16 62
e 16 63
e 16 64
e 16 65
e 16 66
e 16 69
e 16 71
e 16 73
e 16 76
e 16 78
e 16 79
e 16 81
e 16 83
e 16 84
e 16 85
e 16 87
e 16 88
e 16 90
e 16 91
e 16 93
e 16 96
e 16 97
e 16 100
e 17 20
e 17 21
e 17 22
e 17 24
e 17 26
e 17 27
e 17 28
e 17 29
e 17 31
e 17 33
e 17 34
e 17 38
e 17 39
e 17 41
e 17 44
e 17 47
e 17 48
e 17 49
e 17 50
e 17 51
e 17 53
e 17 54
e 17 55
e 17 56
e 17 57
e 17 58
e 17 61
e 17 62
e 17 63
e 17 64
e 17 65
e 17 66
e 17 67
e 17 68
e 17 70
e 17 73
e 17 74
e 17 77
e 17 78
e 17 79
e 17 80
e 17 81
e 17 82
e 17 83
e 17 84
e 17 87
e 17 89
e 17 90
e 17 91
e 17 92
e 17 93
e 17 95
e 17 97
e 17 99
e 17 100
e 18 20
e 18 21
e 18 23
e 18 24
e 18 27
e 18 29
e 18 31
e 18 32
e 18 33
e 18 36
e 18 37
e 18 38
e 18 39
e 18 40
e 18 41
e 18 42
e 18 43
e 18 44
e 18 46
e 18 48
e 18 49
e 18 50
e 18 51
e 18 52
e 18 56
e 18 57
e 18 59
e 18 61
e 18 62
e 18 63
e 18 65
e 18 66
e 18 67
e 18 68
e 18 71
e 18 73
e 18 74
e 18 75
e 18 76
e 18 78
e 18 79
e 18 80
e 18 82
e 18 83
e 18 84
e 18 85
e 18 86
e 18 87
e 18 88
e 18 89
e 18 90
e 18 91
e 18 92
e 18 94
e 18 96
e 18 97
e 18 99
e 18 100
e 19 22
e 19 23
e 19 27
e 19 31
e 19 33
e 19 34
e 19 35
e 19 36
e 19 37
e 19 40
e 19 44
e 19 46
e 19 47
e 19 48
e 19 49
e 19 50
e 19 51
e 19 52
e 19 56
e 19 58
e 19 59
e 19 60
e 19 62
e 19 64
e 19 65
e 19 66
e 19 67
e 19 68
e 19 69
e 19 70
e 19 72
e 19 74
e 19 75
e 19 78
e 19 80
e 19 81
e 19 82
e 19 83
e 19 85
e 19 89
e 19 91
e 19 93
e 19 94
e 19 95
e 19 97
e 19 98
e 19 99
e 19 100
e 20 22
e 20 24
e 20 25
e 20 30
e 20 32
e 20 33
e 20 36
e 20 39
e 20 40
e 20 41
e 20 43
e 20 46
e 20 47
e 20 49
e 20 52
e 20 53
e 20 54
e 20 56
e 20 57
e 20 59
e 20 60
e 20 64
e 20 65
e 20 67
e 20 69
e 20 70
e 20 71
e 20 73
e 20 77
e 20 80
e 20 83
e 20 84
e 20 85
e 20 86
e 20 87
e 20 89
e 20 90
e 20 91
e 20 93
e 20 94
e 20 96
e 20 97
e 20 98
e 20 99
e 20 100
e 21 22
e 21 23
e 21 25
e 21 26
e 21 27
e 21 30
e 21 31
e 21 32
e 21 33
e 21 34
e 21 37
e 21 40
e 21 41
e 21 43
e 21 44
e 21 45
e 21 46
e 21 49
e 21 50
e 21 51
e 21 52
e 21 55
e 21 56
e 21 57
e 21 58
e 21 59
e 21 60
e 21 61
e 21 62
e 21 64
e 21 68
e 21 69
e 21 70
e 21 71
e 21 76
e 21 77
e 21 80
e 21 82
e 21 83
e 21 87
e 21 93
e 21 94
e 21 96
e 21 99
e 21 100
e 22 24
e 22 27
e 22 29
e 22 31
e 22 32
e 22 33
e 22 36
e 22 37
e 22 41
e 22 42
e 22 43
e 22 45
e 22 47
e 22 49
e 22 51
e 22 52
e 22 54
e 22 55
e 22 56
e 22 58
e 22 59
e 22 63
e 22 64
e 22 66
e 22 67
e 22 68
e 22 69
e 22 70
e 22 71
e 22 73
e 22 74
e 22 75
e 22 76
e 22 77
e 22 79
e 22 81
e 22 83
e 22 84
e 22 85
e 22 86
e 22 87
e 22 88
e 22 89
e 22 91
e 22 92
e 22 93
e 22 96
e 22 97
e 22 98
e 22 99
e 22 100
e 23 27
e 23 28
e 23 31
e 23 32
e 23 33
e 23 37
e 23 38
e 23 41
e 23 44
e 23 45
e 23 46
e 23 49
e 23 53
e 23 55
e 23 56
e 23 60
e 23 62
e 23 63
e 23 64
e 23 65
e 23 69
e 23 71
e 23 72
e 23 74
e 23 75
e 23 76
e 23 78
e 23 81
e 23 82
e 23 84
e 23 85
e 23 87
e 23 88
e 23 89
e 23 90
e 23 93
e 23 94
e 23 96
e 23 97
e 23 98
e 23 99
e 24 26
e 24 29
e 24 31
e 24 32
e 24 34
e 24 35
e 24 41
e 24 42
e 24 44
e 24 49
e 24 51
e 24 53
e 24 55
e 24 58
e 24 60
e 24 62
e 24 63
e 24 66
e 24 69
e 24 70
e 24 71
e 24 72
e 24 73
e 24 74
e 24 80
e 24 82
e 24 83
e 24 84
e 24 85
e 24 86
e 24 87
e 24 88
e 24 89
e 24 92
e 24 93
e 24 95
e 24 96
e 24 99
e 25 26
e 25 27
e 25 30
e 25 31
e 25 36
e 25 38
e 25 39
e 25 40
e 25 41
e 25 43
e 25 44
e 25 45
e 25 47
e 25 48
e 25 54
e 25 59
e 25 60
e 25 61
e 25 63
e 25 64
e 25 66
e 25 67
e 25 68
e 25 69
e 25 70
e 25 71
e 25 72
e 25 73
e 25 74
e 25 75
e 25 78
e 25 79
e 25 80
e 25 81
e 25 82
e 25 83
e 25 84
e 25 85
e 25 87
e 25 88
e 25 90
e 25 91
e 25 94
e 25 95
e 25 99
e 25 100
e 26 27
e 26 28
e 26 29
e 26 30
e 26 31
e 26 32
e 26 33
e 26 35
e 26 37
e 26 39
e 26 40
e 26 41
e 26 43
e 26 44
e 26 46
e 26 47
e 26 48
e 26 50
e 26 51
e 26 52
e 26 53
e 26 54
e 26 55
e 26 57
e 26 61
e 26 63
e 26 64
e 26 65
e 26 66
e 26 68
e 26 70
e 26 72
e 26 73
e 26 75
e 26 76
e 26 77
e 26 79
e 26 80
e 26 83
e 26 84
e 26 86
e 26 87
e 26 88
e 26 93
e 26 94
e 26 97
e 26 98
e 27 29
e 27 31
e 27 32
e 27 33
e 27 36
e 27 37
e 27 38
e 27 39
e 27 40
e 27 42
e 27 44
e 27 45
e 27 47
e 27 52
e 27 53
e 27 54
e 27 55
e 27 56
e 27 57
e 27 58
e 27 59
e 27 60
e 27 62
e 27 64
e 27 65
e 27 69
e 27 70
e 27 73
e 27 78
e 27 81
e 27 82
e 27 83
e 27 84
e 27 88
e 27 89
e 27 90
e 27 91
e 27 92
e 27 93
e 27 94
e 27 95
e 27 96
e 27 98
e 27 99
e 27 100
e 28 31
e 28 32
e 28 34
e 28 35
e 28 36
e 28 38
e 28 41
e 28 43
e 28 44
e 28 45
e 28 46
e 28 47
e 28 48
e 28 51
e 28 52
e 28 53
e 28 54
e 28 55
e 28 56
e 28 57
e 28 58
e 28 61
e 28 62
e 28 64
e 28 65
e 28 66
e 28 68
e 28 73
e 28 74
e 28 76
e 28 77
e 28 78
e 28 80
e 28 82
e 28 83
e 28 84
e 28 85
e 28 87
e 28 90
e 28 91
e 28 92
e 28 95
e 28 96
e 28 99
e 29 33
e 29 35
e 29 36
e 29 37
e 29 38
e 29 39
e 29 40
e 29 41
e 29 42
e 29 43
e 29 44
e 29 46
e 29 47
e 29 48
e 29 49
e 29 52
e 29 53
e 29 55
e 29 56
e 29 57
e 29 59
e 29 60
e 29 61
e 29 64
e 29 66
e 29 68
e 29 70
e 29 72
e 29 73
e 29 76
e 29 77
e 29 80
e 29 81
e 29 83
e 29 90
e 29 91
e 29 92
e 29 94
e 29 96
e 29 99
e 29 100
e 30 33
e 30 35
e 30 36
e 30 37
e 30 38
e 30 40
e 30 41
e 30 42
e 30 43
e 30 49
e 30 51
e 30 52
e 30 56
e 30 58
e 30 59
e 30 60
e 30 61
e 30 63
e 30 64
e 30 66
e 30 67
e 30 68
e 30 70
e 30 72
e 30 74
e 30 75
e 30 79
e 30 81
e 30 84
e 30 85
e 30 89
e 30 90
e 30 93
e 30 94
e 30 95
e 30 96
e 30 98
e 30 99
e 31 34
e 31 38
e 31 40
e 31 41
e 31 43
e 31 44
e 31 45
e 31 46
e 31 47
e 31 48
e 31 50
e 31 52
e 31 53
e 31 55
e 31 56
e 31 58
e 31 60
e 31 62
e 31 64
e 31 65
e 31 66
e 31 67
e 31 68
e 31 71
e 31 73
e 31 75
e 31 77
e 31 81
e 31 84
e 31 86
e 31 88
e 31 89
e 31 90
e 31 91
e 31 93
e 31 96
e 31 97
e 31 99
e 31 100
e 32 33
e 32 35
e 32 38
e 32 39
e 32 40
e 32 41
e 32 42
e 32 44
e 32 46
e 32 47
e 32 48
e 32 49
e 32 50
e 32 52
e 32 54
e 32 56
e 32 57
e 32 60
e 32 61
e 32 62
e 32 63
e 32 64
e 32 65
e 32 68
e 32 69
e 32 71
e 32 72
e 32 73
e 32 74
e 32 78
e 32 79
e 32 80
e 32 81
e 32 83
e 32 87
e 32 88
e 32 90
e 32 94
e 32 95
e 32 96
e 32 97
e 32 98
e 33 34
e 33 36
e 33 38
e 33 39
e 33 41
e 33 42
e 33 47
e 33 49
e 33 52
e 33 53
e 33 55
e 33 56
e 33 60
e 33 61
e 33 62
e 33 65
e 33 66
e 33 67
e 33 68
e 33 69
e 33 72
e 33 73
e 33 74
e 33 75
e 33 76
e 33 77
e 33 78
e 33 81
e 33 84
e 33 85
e 33 88
e 33 89
e 33 91
e 33 92
e 33 93
e 33 95
e 33 96
e 33 97
e 33 99
e 34 35
e 34 36
e 34 37
e 34 38
e 34 39
e 34 40
e 34 42
e 34 43
e 34 45
e 34 46
e 34 47
e 34 49
e 34 50
e 34 52
e 34 57
e 34 58
e 34 59
e 34 60
e 34 61
e 34 62
e 34 64
e 34 65
e 34 67
e 34 68
e 34 69
e 34 71
e 34 76
e 34 77
e 34 78
e 34 79
e 34 80
e 34 86
e 34 87
e 34 88
e 34 91
e 34 96
e 34 97
e 34 98
e 34 99
e 34 100
e 35 36
e 35 39
e 35 41
e 35 43
e 35 48
e 35 49
e 35 50
e 35 51
e 35 52
e 35 53
e 35 57
e 35 58
e 35 59
e 35 60
e 35 62
e 35 63
e 35 64
e 35 67
e 35 70
e 35 73
e 35 74
e 35 78
e 35 79
e 35 83
e 35 84
e 35 85
e 35 86
e 35 87
e 35 88
e 35 89
e 35 92
e 35 94
e 35 95
e 35 96
e 35 98
e 35 99
e 36 37
e 36 38
e 36 39
e 36 40
e 36 42
e 36 43
e 36 45
e 36 46
e 36 48
e 36 49
e 36 51
e 36 54
e 36 55
e 36 56
e 36 57
e 36 59
e 36 60
e 36 61
e 36 62
e 36 63
e 36 64
e 36 66
e 36 67
e 36 69
e 36 71
e 36 73
e 36 74
e 36 76
e 36 77
e 36 78
e 36 80
e 36 86
e 36 88
e 36 91
e 36 93
e 36 95
e 36 96
e 36 97
e 37 39
e 37 42
e 37 43
e 37 44
e 37 45
e 37 49
e 37 51
e 37 52
e 37 54
e 37 55
e 37 57
e 37 58
e 37 59
e 37 60
e 37 61
e 37 62
e 37 65
e 37 66
e 37 67
e 37 69
e 37 70
e 37 71
e 37 72
e 37 74
e 37 75
e 37 77
e 37 78
e 37 83
e 37 84
e 37 85
e 37 86
e 37 87
e 37 89
e 37 90
e 37 91
e 37 92
e 37 93
e 37 95
e 37 97
e 37 99
e 37 100
e 38 43
e 38 44
e 38 48
e 38 52
e 38 53
e 38 54
e 38 55
e 38 56
e 38 57
e 38 59
e 38 61
e 38 63
e 38 64
e 38 65
e 38 67
e 38 70
e 38 71
e 38 72
e 38 73
e 38 75
e 38 78
e 38 80
e 38 81
e 38 82
e 38 83
e 38 84
e 38 85
e 38 87
e 38 88
e 38 92
e 38 93
e 38 94
e 38 96
e 38 97
e 38 100
e 39 40
e 39 43
e 39 44
e 39 45
e 39 47
e 39 49
e 39 50
e 39 51
e 39 52
e 39 53
e 39 54
e 39 55
e 39 56
e 39 57
e 39 58
e 39 59
e 39 61
e 39 62
e 39 63
e 39 66
e 39 68
e 39 71
e 39 72
e 39 73
e 39 76
e 39 77
e 39 79
e 39 80
e 39 84
e 39 85
e 39 87
e 39 88
e 39 91
e 39 92
e 39 93
e 39 94
e 39 95
e 39 96
e 39 97
e 39 98
e 39 99
e 40 43
e 40 44
e 40 46
e 40 47
e 40 48
e 40 49
e 40 50
e 40 51
e 40 52
e 40 53
e 40 54
e 40 55
e 40 56
e 40 60
e 40 61
e 40 62
e 40 64
e 40 65
e 40 66
e 40 67
e 40 68
e 40 69
e 40 70
e 40 72
e 40 73
e 40 75
e 40 76
e 40 77
e 40 80
e 40 81
e 40 84
e 40 85
e 40 87
e 40 89
e 40 90
e 40 92
e 40 93
e 40 94
e 40 95
e 40 96
e 40 97
e 40 98
e 41 42
e 41 45
e 41 46
e 41 49
e 41 50
e 41 51
e 41 52
e 41 54
e 41 55
e 41 56
e 41 57
e 41 58
e 41 60
e 41 65
e 41 66
e 41 68
e 41 71
e 41 72
e 41 74
e 41 75
e 41 76
e 41 78
e 41 79
e 41 81
e 41 82
e 41 84
e 41 85
e 41 86
e 41 87
e 41 88
e 41 90
e 41 91
e 41 96
e 41 98
e 42 43
e 42 47
e 42 48
e 42 50
e 42 51
e 42 54
e 42 56
e 42 57
e 42 58
e 42 60
e 42 61
e 42 63
e 42 65
e 42 66
e 42 68
e 42 69
e 42 70
e 42 72
e 42 73
e 42 74
e 42 78
e 42 79
e 42 80
e 42 81
e 42 82
e 42 83
e 42 86
e 42 87
e 42 88
e 42 89
e 42 90
e 42 94
e 42 95
e 42 96
e 42 97
e 42 98
e 42 99
e 42 100
e 43 44
e 43 48
e 43 49
e 43 51
e 43 52
e 43 53
e 43 54
e 43 55
e 43 56
e 43 57
e 43 58
e 43 60
e 43 63
e 43 64
e 43 65
e 43 67
e 43 68
e 43 71
e 43 72
e 43 74
e 43 77
e 43 79
e 43 81
e 43 83
e 43 84
e 43 85
e 43 86
e 43 87
e 43 88
e 43 89
e 43 90
e 43 91
e 43 92
e 43 95
e 43 97
e 43 99
e 43 100
e 44 45
e 44 46
e 44 48
e 44 52
e 44 54
e 44 55
e 44 57
e 44 59
e 44 60
e 44 62
e 44 63
e 44 65
e 44 67
e 44 68
e 44 69
e 44 70
e 44 71
e 44 72
e 44 73
e 44 74
e 44 75
e 44 76
e 44 77
e 44 79
e 44 80
e 44 81
e 44 84
e 44 85
e 44 86
e 44 89
e 44 91
e 44 93
e 44 94
e 44 97
e 44 98
e 44 99
e 44 100
e 45 46
e 45 47
e 45 49
e 45 50
e 45 51
e 45 53
e 45 55
e 45 56
e 45 58
e 45 61
e 45 62
e 45 63
e 45 64
e 45 65
e 45 66
e 45 67
e 45 68
e 45 70
e 45 71
e 45 74
e 45 75
e 45 76
e 45 79
e 45 80
e 45 83
e 45 84
e 45 85
e 45 86
e 45 87
e 45 89
e 45 90
e 45 92
e 45 93
e 45 94
e 45 96
e 45 97
e 45 99
e 45 100
e 46 47
e 46 48
e 46 49
e 46 50
e 46 52
e 46 54
e 46 58
e 46 59
e 46 60
e 46 62
e 46 63
e 46 64
e 46 65
e 46 66
e 46 67
e 46 68
e 46 70
e 46 71
e 46 72
e 46 73
e 46 77
e 46 78
e 46 79
e 46 80
e 46 84
e 46 85
e 46 87
e 46 88
e 46 89
e 46 91
e 46 92
e 46 93
e 46 95
e 46 96
e 46 97
e 46 98
e 46 99
e 47 48
e 47 49
e 47 50
e 47 53
e 47 54
e 47 55
e 47 56
e 47 58
e 47 59
e 47 61
e 47 62
e 47 63
e 47 64
e 47 66
e 47 68
e 47 72
e 47 73
e 47 74
e 47 75
e 47 76
e 47 77
e 47 79
e 47 81
e 47 83
e 47 86
e 47 88
e 47 90
e 47 92
e 47 95
e 47 96
e 47 98
e 47 100
e 48 49
e 48 50
e 48 53
e 48 57
e 48 58
e 48 63
e 48 66
e 48 68
e 48 69
e 48 71
e 48 73
e 48 74
e 48 75
e 48 81
e 48 82
e 48 83
e 48 85
e 48 86
e 48 87
e 48 88
e 48 90
e 48 93
e 48 94
e 48 95
e 48 96
e 48 97
e 48 99
e 48 100
e 49 57
e 49 58
e 49 59
e 49 65
e 49 66
e 49 67
e 49 68
e 49 69
e 49 73
e 49 74
e 49 75
e 49 76
e 49 77
e 49 79
e 49 80
e 49 81
e 49 82
e 49 84
e 49 92
e 49 93
e 49 95
e 49 98
e 50 52
e 50 53
e 50 54
e 50 56
e 50 57
e 50 59
e 50 61
e 50 62
e 50 63
e 50 64
e 50 65
e 50 67
e 50 68
e 50 70
e 50 71
e 50 72
e 50 73
e 50 75
e 50 76
e 50 77
e 50 80
e 50 83
e 50 84
e 50 87
e 50 90
e 50 95
e 50 96
e 50 100
e 51 52
e 51 53
e 51 54
e 51 55
e 51 56
e 51 57
e 51 58
e 51 59
e 51 62
e 51 63
e 51 65
e 51 67
e 51 69
e 51 71
e 51 73
e 51 74
e 51 76
e 51 78
e 51 79
e 51 80
e 51 81
e 51 82
e 51 83
e 51 84
e 51 85
e 51 86
e 51 87
e 51 88
e 51 89
e 51 90
e 51 91
e 51 92
e 51 93
e 51 94
e 51 95
e 51 96
e 52 55
e 52 58
e 52 59
e 52 60
e 52 62
e 52 64
e 52 67
e 52 71
e 52 72
e 52 73
e 52 76
e 52 77
e 52 78
e 52 80
e 52 81
e 52 83
e 52 84
e 52 85
e 52 86
e 52 88
e 52 89
e 52 90
e 52 91
e 52 93
e 52 94
e 52 95
e 52 97
e 52 99
e 53 54
e 53 55
e 53 56
e 53 57
e 53 59
e 53 61
e 53 62
e 53 63
e 53 64
e 53 67
e 53 68
e 53 69
e 53 70
e 53 73
e 53 76
e 53 77
e 53 80
e 53 83
e 53 84
e 53 86
e 53 87
e 53 88
e 53 91
e 53 92
e 53 93
e 53 94
e 53 95
e 53 98
e 53 99
e 54 55
e 54 56
e 54 58
e 54 59
e 54 60
e 54 61
e 54 62
e 54 63
e 54 65
e 54 69
e 54 70
e 54 71
e 54 73
e 54 75
e 54 77
e 54 78
e 54 79
e 54 81
e 54 83
e 54 84
e 54 85
e 54 87
e 54 89
e 54 91
e 54 92
e 54 93
e 54 94
e 54 99
e 55 57
e 55 59
e 55 60
e 55 61
e 55 62
e 55 63
e 55 64
e 55 65
e 55 66
e 55 67
e 55 68
e 55 69
e 55 70
e 55 72
e 55 73
e 55 74
e 55 75
e 55 77
e 55 80
e 55 81
e 55 82
e 55 83
e 55 84
e 55 85
e 55 87
e 55 90
e 55 92
e 55 98
e 56 57
e 56 59
e 56 61
e 56 62
e 56 63
e 56 68
e 56 69
e 56 70
e 56 71
e 56 72
e 56 74
e 56 75
e 56 76
e 56 77
e 56 78
e 56 79
e 56 80
e 56 83
e 56 85
e 56 89
e 56 91
e 56 94
e 56 95
e 57 58
e 57 60
e 57 62
e 57 63
e 57 64
e 57 65
e 57 66
e 57 67
e 57 68
e 57 69
e 57 70
e 57 71
e 57 72
e 57 74
e 57 75
e 57 76
e 57 77
e 57 79
e 57 83
e 57 88
e 57 90
e 57 91
e 57 92
e 57 93
e 57 97
e 57 99
e 58 59
e 58 60
e 58 61
e 58 63
e 58 64
e 58 65
e 58 66
e 58 67
e 58 70
e 58 72
e 58 73
e 58 74
e 58 75
e 58 78
e 58 80
e 58 81
e 58 83
e 58 85
e 58 88
e 58 90
e 58 91
e 58 92
e 58 94
e 58 96
e 58 97
e 58 100
e 59 62
e 59 63
e 59 64
e 59 67
e 59 68
e 59 71
e 59 72
e 59 73
e 59 75
e 59 77
e 59 78
e 59 80
e 59 90
e 59 91
e 59 93
e 59 97
e 59 98
e 59 99
e 60 61
e 60 63
e 60 64
e 60 65
e 60 68
e 60 69
e 60 73
e 60 74
e 60 76
e 60 77
e 60 78
e 60 79
e 60 80
e 60 81
e 60 82
e 60 83
e 60 84
e 60 87
e 60 89
e 60 90
e 60 92
e 60 96
e 60 97
e 60 98
e 61 63
e 61 68
e 61 71
e 61 72
e 61 74
e 61 77
e 61 78
e 61 79
e 61 82
e 61 83
e 61 84
e 61 85
e 61 86
e 61 88
e 61 89
e 61 90
e 61 93
e 61 95
e 61 96
e 61 97
e 61 98
e 61 99
e 62 65
e 62 67
e 62 68
e 62 69
e 62 73
e 62 75
e 62 76
e 62 78
e 62 80
e 62 81
e 62 82
e 62 83
e 62 86
e 62 87
e 62 89
e 62 91
e 62 92
e 62 93
e 62 94
e 62 96
e 62 98
e 62 99
e 62 100
e 63 65
e 63 66
e 63 67
e 63 68
e 63 71
e 63 72
e 63 75
e 63 76
e 63 77
e 63 78
e 63 81
e 63 84
e 63 87
e 63 89
e 63 92
e 63 93
e 63 94
e 63 95
e 63 96
e 63 97
e 63 98
e 63 99
e 64 65
e 64 66
e 64 68
e 64 69
e 64 71
e 64 72
e 64 73
e 64 75
e 64 77
e 64 78
e 64 82
e 64 83
e 64 84
e 64 85
e 64 86
e 64 87
e 64 89
e 64 91
e 64 92
e 64 93
e 64 95
e 64 96
e 64 97
e 64 98
e 65 66
e 65 71
e 65 72
e 65 73
e 65 74
e 65 76
e 65 77
e 65 79
e 65 82
e 65 85
e 65 86
e 65 88
e 65 89
e 65 90
e 65 91
e 65 92
e 65 95
e 65 96
e 65 97
e 65 98
e 65 99
e 65 100
e 66 69
e 66 70
e 66 72
e 66 73
e 66 74
e 66 77
e 66 78
e 66 80
e 66 81
e 66 82
e 66 83
e 66 85
e 66 86
e 66 88
e 66 90
e 66 92
e 66 93
e 66 94
e 66 95
e 66 96
e 66 97
e 66 98
e 66 99
e 66 100
e 67 68
e 67 70
e 67 71
e 67 73
e 67 74
e 67 75
e 67 76
e 67 79
e 67 80
e 67 83
e 67 84
e 67 86
e 67 87
e 67 90
e 67 91
e 67 95
e 67 96
e 67 97
e 67 98
e 67 100
e 68 71
e 68 72
e 68 73
e 68 74
e 68 75
e 68 76
e 68 78
e 68 79
e 68 81
e 68 83
e 68 84
e 68 87
e 68 89
e 68 92
e 68 93
e 68 94
e 68 100
e 69 71
e 69 73
e 69 74
e 69 77
e 69 78
e 69 79
e 69 80
e 69 81
e 69 82
e 69 83
e 69 85
e 69 86
e 69 87
e 69 89
e 69 93
e 69 94
e 69 96
e 69 97
e 69 98
e 69 100
e 70 72
e 70 73
e 70 77
e 70 78
e 70 79
e 70 81
e 70 82
e 70 84
e 70 86
e 70 90
e 70 91
e 70 92
e 70 95
e 70 96
e 70 97
e 70 99
e 70 100
e 71 73
e 71 74
e 71 75
e 71 76
e 71 78
e 71 79
e 71 80
e 71 81
e 71 84
e 71 85
e 71 86
e 71 88
e 71 90
e 71 91
e 71 92
e 71 93
e 71 95
e 71 97
e 71 98
e 71 99
e 71 100
e 72 73
e 72 76
e 72 78
e 72 79
e 72 80
e 72 82
e 72 84
e 72 85
e 72 89
e 72 91
e 72 92
e 72 93
e 72 94
e 72 98
e 72 99
e 73 74
e 73 75
e 73 76
e 73 77
e 73 78
e 73 79
e 73 80
e 73 81
e 73 83
e 73 85
e 73 87
e 73 88
e 73 89
e 73 92
e 73 95
e 73 98
e 73 100
e 74 75
e 74 81
e 74 82
e 74 89
e 74 90
e 74 91
e 74 96
e 74 97
e 74 98
e 75 76
e 75 78
e 75 81
e 75 83
e 75 84
e 75 85
e 75 86
e 75 89
e 75 90
e 75 91
e 75 92
e 75 94
e 75 95
e 75 97
e 76 77
e 76 78
e 76 79
e 76 85
e 76 86
e 76 87
e 76 91
e 76 95
e 76 96
e 76 98
e 76 99
e 77 78
e 77 79
e 77 82
e 77 84
e 77 85
e 77 86
e 77 89
e 77 90
e 77 91
e 77 93
e 77 95
e 77 96
e 77 97
e 77 98
e 77 99
e 77 100
e 78 81
e 78 84
e 78 85
e 78 88
e 78 89
e 78 90
e 78 95
e 78 96
e 78 97
e 78 100
e 79 80
e 79 85
e 79 86
e 79 89
e 79 91
e 79 93
e 79 97
e 79 98
e 79 99
e 80 81
e 80 83
e 80 84
e 80 86
e 80 87
e 80 89
e 80 90
e 80 91
e 80 92
e 80 94
e 80 95
e 80 98
e 80 99
e 81 82
e 81 83
e 81 84
e 81 85
e 81 87
e 81 88
e 81 91
e 81 93
e 81 94
e 81 95
e 81 97
e 81 99
e 81 100
e 82 83
e 82 84
e 82 85
e 82 89
e 82 93
e 82 95
e 82 96
e 82 97
e 82 98
e 82 99
e 83 84
e 83 85
e 83 86
e 83 88
e 83 90
e 83 92
e 83 95
e 83 98
e 83 100
e 84 88
e 84 89
e 84 90
e 84 91
e 84 92
e 84 94
e 84 95
e 84 96
e 85 88
e 85 89
e 85 90
e 85 92
e 85 93
e 85 94
e 85 98
e 86 88
e 86 91
e 86 93
e 86 94
e 86 95
e 86 96
e 86 97
e 86 99
e 87 88
e 87 89
e 87 90
e 87 91
e 87 94
e 87 95
e 87 96
e 87 97
e 87 98
e 88 89
e 88 91
e 88 92
e 88 94
e 88 95
e 88 96
e 88 97
e 88 98
e 88 100
e 89 90
e 89 91
e 89 94
e 89 95
e 89 96
e 89 97
e 89 99
e 89 100
e 90 94
e 90 95
e 90 99
e 91 92
e 91 93
e 91 94
e 91 96
e 91 97
e 91 99
e 92 94
e 92 95
e 92 96
e 92 97
e 92 100
e 93 94
e 93 95
e 93 97
e 93 98
e 93 99
e 93 100
e 94 95
e 94 96
e 94 97
e 94 99
e 95 98
e 95 99
e 95 100
e 96 99
e 97 99
e 97 100
e 98 99
e 98 100
e 99 100